c *********************************
c * Circuit generated by BenCGen
c *
c * Parity_450
c *
c * Ports with 1 gate(s): 1
c * Ports with 2 gate(s): 450
c * Total gates: 451
c *********************************
p cnf 901 1801
1 453 0
-1 -453 0
1 -452 0
453 -452 0
-1 -453 452 0
1 2 -454 0
-1 2 454 0
1 -2 454 0
-1 -2 -454 0
3 4 -455 0
-3 4 455 0
3 -4 455 0
-3 -4 -455 0
5 6 -456 0
-5 6 456 0
5 -6 456 0
-5 -6 -456 0
7 8 -457 0
-7 8 457 0
7 -8 457 0
-7 -8 -457 0
9 10 -458 0
-9 10 458 0
9 -10 458 0
-9 -10 -458 0
11 12 -459 0
-11 12 459 0
11 -12 459 0
-11 -12 -459 0
13 14 -460 0
-13 14 460 0
13 -14 460 0
-13 -14 -460 0
15 16 -461 0
-15 16 461 0
15 -16 461 0
-15 -16 -461 0
17 18 -462 0
-17 18 462 0
17 -18 462 0
-17 -18 -462 0
19 20 -463 0
-19 20 463 0
19 -20 463 0
-19 -20 -463 0
21 22 -464 0
-21 22 464 0
21 -22 464 0
-21 -22 -464 0
23 24 -465 0
-23 24 465 0
23 -24 465 0
-23 -24 -465 0
25 26 -466 0
-25 26 466 0
25 -26 466 0
-25 -26 -466 0
27 28 -467 0
-27 28 467 0
27 -28 467 0
-27 -28 -467 0
29 30 -468 0
-29 30 468 0
29 -30 468 0
-29 -30 -468 0
31 32 -469 0
-31 32 469 0
31 -32 469 0
-31 -32 -469 0
33 34 -470 0
-33 34 470 0
33 -34 470 0
-33 -34 -470 0
35 36 -471 0
-35 36 471 0
35 -36 471 0
-35 -36 -471 0
37 38 -472 0
-37 38 472 0
37 -38 472 0
-37 -38 -472 0
39 40 -473 0
-39 40 473 0
39 -40 473 0
-39 -40 -473 0
41 42 -474 0
-41 42 474 0
41 -42 474 0
-41 -42 -474 0
43 44 -475 0
-43 44 475 0
43 -44 475 0
-43 -44 -475 0
45 46 -476 0
-45 46 476 0
45 -46 476 0
-45 -46 -476 0
47 48 -477 0
-47 48 477 0
47 -48 477 0
-47 -48 -477 0
49 50 -478 0
-49 50 478 0
49 -50 478 0
-49 -50 -478 0
51 52 -479 0
-51 52 479 0
51 -52 479 0
-51 -52 -479 0
53 54 -480 0
-53 54 480 0
53 -54 480 0
-53 -54 -480 0
55 56 -481 0
-55 56 481 0
55 -56 481 0
-55 -56 -481 0
57 58 -482 0
-57 58 482 0
57 -58 482 0
-57 -58 -482 0
59 60 -483 0
-59 60 483 0
59 -60 483 0
-59 -60 -483 0
61 62 -484 0
-61 62 484 0
61 -62 484 0
-61 -62 -484 0
63 64 -485 0
-63 64 485 0
63 -64 485 0
-63 -64 -485 0
65 66 -486 0
-65 66 486 0
65 -66 486 0
-65 -66 -486 0
67 68 -487 0
-67 68 487 0
67 -68 487 0
-67 -68 -487 0
69 70 -488 0
-69 70 488 0
69 -70 488 0
-69 -70 -488 0
71 72 -489 0
-71 72 489 0
71 -72 489 0
-71 -72 -489 0
73 74 -490 0
-73 74 490 0
73 -74 490 0
-73 -74 -490 0
75 76 -491 0
-75 76 491 0
75 -76 491 0
-75 -76 -491 0
77 78 -492 0
-77 78 492 0
77 -78 492 0
-77 -78 -492 0
79 80 -493 0
-79 80 493 0
79 -80 493 0
-79 -80 -493 0
81 82 -494 0
-81 82 494 0
81 -82 494 0
-81 -82 -494 0
83 84 -495 0
-83 84 495 0
83 -84 495 0
-83 -84 -495 0
85 86 -496 0
-85 86 496 0
85 -86 496 0
-85 -86 -496 0
87 88 -497 0
-87 88 497 0
87 -88 497 0
-87 -88 -497 0
89 90 -498 0
-89 90 498 0
89 -90 498 0
-89 -90 -498 0
91 92 -499 0
-91 92 499 0
91 -92 499 0
-91 -92 -499 0
93 94 -500 0
-93 94 500 0
93 -94 500 0
-93 -94 -500 0
95 96 -501 0
-95 96 501 0
95 -96 501 0
-95 -96 -501 0
97 98 -502 0
-97 98 502 0
97 -98 502 0
-97 -98 -502 0
99 100 -503 0
-99 100 503 0
99 -100 503 0
-99 -100 -503 0
101 102 -504 0
-101 102 504 0
101 -102 504 0
-101 -102 -504 0
103 104 -505 0
-103 104 505 0
103 -104 505 0
-103 -104 -505 0
105 106 -506 0
-105 106 506 0
105 -106 506 0
-105 -106 -506 0
107 108 -507 0
-107 108 507 0
107 -108 507 0
-107 -108 -507 0
109 110 -508 0
-109 110 508 0
109 -110 508 0
-109 -110 -508 0
111 112 -509 0
-111 112 509 0
111 -112 509 0
-111 -112 -509 0
113 114 -510 0
-113 114 510 0
113 -114 510 0
-113 -114 -510 0
115 116 -511 0
-115 116 511 0
115 -116 511 0
-115 -116 -511 0
117 118 -512 0
-117 118 512 0
117 -118 512 0
-117 -118 -512 0
119 120 -513 0
-119 120 513 0
119 -120 513 0
-119 -120 -513 0
121 122 -514 0
-121 122 514 0
121 -122 514 0
-121 -122 -514 0
123 124 -515 0
-123 124 515 0
123 -124 515 0
-123 -124 -515 0
125 126 -516 0
-125 126 516 0
125 -126 516 0
-125 -126 -516 0
127 128 -517 0
-127 128 517 0
127 -128 517 0
-127 -128 -517 0
129 130 -518 0
-129 130 518 0
129 -130 518 0
-129 -130 -518 0
131 132 -519 0
-131 132 519 0
131 -132 519 0
-131 -132 -519 0
133 134 -520 0
-133 134 520 0
133 -134 520 0
-133 -134 -520 0
135 136 -521 0
-135 136 521 0
135 -136 521 0
-135 -136 -521 0
137 138 -522 0
-137 138 522 0
137 -138 522 0
-137 -138 -522 0
139 140 -523 0
-139 140 523 0
139 -140 523 0
-139 -140 -523 0
141 142 -524 0
-141 142 524 0
141 -142 524 0
-141 -142 -524 0
143 144 -525 0
-143 144 525 0
143 -144 525 0
-143 -144 -525 0
145 146 -526 0
-145 146 526 0
145 -146 526 0
-145 -146 -526 0
147 148 -527 0
-147 148 527 0
147 -148 527 0
-147 -148 -527 0
149 150 -528 0
-149 150 528 0
149 -150 528 0
-149 -150 -528 0
151 152 -529 0
-151 152 529 0
151 -152 529 0
-151 -152 -529 0
153 154 -530 0
-153 154 530 0
153 -154 530 0
-153 -154 -530 0
155 156 -531 0
-155 156 531 0
155 -156 531 0
-155 -156 -531 0
157 158 -532 0
-157 158 532 0
157 -158 532 0
-157 -158 -532 0
159 160 -533 0
-159 160 533 0
159 -160 533 0
-159 -160 -533 0
161 162 -534 0
-161 162 534 0
161 -162 534 0
-161 -162 -534 0
163 164 -535 0
-163 164 535 0
163 -164 535 0
-163 -164 -535 0
165 166 -536 0
-165 166 536 0
165 -166 536 0
-165 -166 -536 0
167 168 -537 0
-167 168 537 0
167 -168 537 0
-167 -168 -537 0
169 170 -538 0
-169 170 538 0
169 -170 538 0
-169 -170 -538 0
171 172 -539 0
-171 172 539 0
171 -172 539 0
-171 -172 -539 0
173 174 -540 0
-173 174 540 0
173 -174 540 0
-173 -174 -540 0
175 176 -541 0
-175 176 541 0
175 -176 541 0
-175 -176 -541 0
177 178 -542 0
-177 178 542 0
177 -178 542 0
-177 -178 -542 0
179 180 -543 0
-179 180 543 0
179 -180 543 0
-179 -180 -543 0
181 182 -544 0
-181 182 544 0
181 -182 544 0
-181 -182 -544 0
183 184 -545 0
-183 184 545 0
183 -184 545 0
-183 -184 -545 0
185 186 -546 0
-185 186 546 0
185 -186 546 0
-185 -186 -546 0
187 188 -547 0
-187 188 547 0
187 -188 547 0
-187 -188 -547 0
189 190 -548 0
-189 190 548 0
189 -190 548 0
-189 -190 -548 0
191 192 -549 0
-191 192 549 0
191 -192 549 0
-191 -192 -549 0
193 194 -550 0
-193 194 550 0
193 -194 550 0
-193 -194 -550 0
195 196 -551 0
-195 196 551 0
195 -196 551 0
-195 -196 -551 0
197 198 -552 0
-197 198 552 0
197 -198 552 0
-197 -198 -552 0
199 200 -553 0
-199 200 553 0
199 -200 553 0
-199 -200 -553 0
201 202 -554 0
-201 202 554 0
201 -202 554 0
-201 -202 -554 0
203 204 -555 0
-203 204 555 0
203 -204 555 0
-203 -204 -555 0
205 206 -556 0
-205 206 556 0
205 -206 556 0
-205 -206 -556 0
207 208 -557 0
-207 208 557 0
207 -208 557 0
-207 -208 -557 0
209 210 -558 0
-209 210 558 0
209 -210 558 0
-209 -210 -558 0
211 212 -559 0
-211 212 559 0
211 -212 559 0
-211 -212 -559 0
213 214 -560 0
-213 214 560 0
213 -214 560 0
-213 -214 -560 0
215 216 -561 0
-215 216 561 0
215 -216 561 0
-215 -216 -561 0
217 218 -562 0
-217 218 562 0
217 -218 562 0
-217 -218 -562 0
219 220 -563 0
-219 220 563 0
219 -220 563 0
-219 -220 -563 0
221 222 -564 0
-221 222 564 0
221 -222 564 0
-221 -222 -564 0
223 224 -565 0
-223 224 565 0
223 -224 565 0
-223 -224 -565 0
225 226 -566 0
-225 226 566 0
225 -226 566 0
-225 -226 -566 0
227 228 -567 0
-227 228 567 0
227 -228 567 0
-227 -228 -567 0
229 230 -568 0
-229 230 568 0
229 -230 568 0
-229 -230 -568 0
231 232 -569 0
-231 232 569 0
231 -232 569 0
-231 -232 -569 0
233 234 -570 0
-233 234 570 0
233 -234 570 0
-233 -234 -570 0
235 236 -571 0
-235 236 571 0
235 -236 571 0
-235 -236 -571 0
237 238 -572 0
-237 238 572 0
237 -238 572 0
-237 -238 -572 0
239 240 -573 0
-239 240 573 0
239 -240 573 0
-239 -240 -573 0
241 242 -574 0
-241 242 574 0
241 -242 574 0
-241 -242 -574 0
243 244 -575 0
-243 244 575 0
243 -244 575 0
-243 -244 -575 0
245 246 -576 0
-245 246 576 0
245 -246 576 0
-245 -246 -576 0
247 248 -577 0
-247 248 577 0
247 -248 577 0
-247 -248 -577 0
249 250 -578 0
-249 250 578 0
249 -250 578 0
-249 -250 -578 0
251 252 -579 0
-251 252 579 0
251 -252 579 0
-251 -252 -579 0
253 254 -580 0
-253 254 580 0
253 -254 580 0
-253 -254 -580 0
255 256 -581 0
-255 256 581 0
255 -256 581 0
-255 -256 -581 0
257 258 -582 0
-257 258 582 0
257 -258 582 0
-257 -258 -582 0
259 260 -583 0
-259 260 583 0
259 -260 583 0
-259 -260 -583 0
261 262 -584 0
-261 262 584 0
261 -262 584 0
-261 -262 -584 0
263 264 -585 0
-263 264 585 0
263 -264 585 0
-263 -264 -585 0
265 266 -586 0
-265 266 586 0
265 -266 586 0
-265 -266 -586 0
267 268 -587 0
-267 268 587 0
267 -268 587 0
-267 -268 -587 0
269 270 -588 0
-269 270 588 0
269 -270 588 0
-269 -270 -588 0
271 272 -589 0
-271 272 589 0
271 -272 589 0
-271 -272 -589 0
273 274 -590 0
-273 274 590 0
273 -274 590 0
-273 -274 -590 0
275 276 -591 0
-275 276 591 0
275 -276 591 0
-275 -276 -591 0
277 278 -592 0
-277 278 592 0
277 -278 592 0
-277 -278 -592 0
279 280 -593 0
-279 280 593 0
279 -280 593 0
-279 -280 -593 0
281 282 -594 0
-281 282 594 0
281 -282 594 0
-281 -282 -594 0
283 284 -595 0
-283 284 595 0
283 -284 595 0
-283 -284 -595 0
285 286 -596 0
-285 286 596 0
285 -286 596 0
-285 -286 -596 0
287 288 -597 0
-287 288 597 0
287 -288 597 0
-287 -288 -597 0
289 290 -598 0
-289 290 598 0
289 -290 598 0
-289 -290 -598 0
291 292 -599 0
-291 292 599 0
291 -292 599 0
-291 -292 -599 0
293 294 -600 0
-293 294 600 0
293 -294 600 0
-293 -294 -600 0
295 296 -601 0
-295 296 601 0
295 -296 601 0
-295 -296 -601 0
297 298 -602 0
-297 298 602 0
297 -298 602 0
-297 -298 -602 0
299 300 -603 0
-299 300 603 0
299 -300 603 0
-299 -300 -603 0
301 302 -604 0
-301 302 604 0
301 -302 604 0
-301 -302 -604 0
303 304 -605 0
-303 304 605 0
303 -304 605 0
-303 -304 -605 0
305 306 -606 0
-305 306 606 0
305 -306 606 0
-305 -306 -606 0
307 308 -607 0
-307 308 607 0
307 -308 607 0
-307 -308 -607 0
309 310 -608 0
-309 310 608 0
309 -310 608 0
-309 -310 -608 0
311 312 -609 0
-311 312 609 0
311 -312 609 0
-311 -312 -609 0
313 314 -610 0
-313 314 610 0
313 -314 610 0
-313 -314 -610 0
315 316 -611 0
-315 316 611 0
315 -316 611 0
-315 -316 -611 0
317 318 -612 0
-317 318 612 0
317 -318 612 0
-317 -318 -612 0
319 320 -613 0
-319 320 613 0
319 -320 613 0
-319 -320 -613 0
321 322 -614 0
-321 322 614 0
321 -322 614 0
-321 -322 -614 0
323 324 -615 0
-323 324 615 0
323 -324 615 0
-323 -324 -615 0
325 326 -616 0
-325 326 616 0
325 -326 616 0
-325 -326 -616 0
327 328 -617 0
-327 328 617 0
327 -328 617 0
-327 -328 -617 0
329 330 -618 0
-329 330 618 0
329 -330 618 0
-329 -330 -618 0
331 332 -619 0
-331 332 619 0
331 -332 619 0
-331 -332 -619 0
333 334 -620 0
-333 334 620 0
333 -334 620 0
-333 -334 -620 0
335 336 -621 0
-335 336 621 0
335 -336 621 0
-335 -336 -621 0
337 338 -622 0
-337 338 622 0
337 -338 622 0
-337 -338 -622 0
339 340 -623 0
-339 340 623 0
339 -340 623 0
-339 -340 -623 0
341 342 -624 0
-341 342 624 0
341 -342 624 0
-341 -342 -624 0
343 344 -625 0
-343 344 625 0
343 -344 625 0
-343 -344 -625 0
345 346 -626 0
-345 346 626 0
345 -346 626 0
-345 -346 -626 0
347 348 -627 0
-347 348 627 0
347 -348 627 0
-347 -348 -627 0
349 350 -628 0
-349 350 628 0
349 -350 628 0
-349 -350 -628 0
351 352 -629 0
-351 352 629 0
351 -352 629 0
-351 -352 -629 0
353 354 -630 0
-353 354 630 0
353 -354 630 0
-353 -354 -630 0
355 356 -631 0
-355 356 631 0
355 -356 631 0
-355 -356 -631 0
357 358 -632 0
-357 358 632 0
357 -358 632 0
-357 -358 -632 0
359 360 -633 0
-359 360 633 0
359 -360 633 0
-359 -360 -633 0
361 362 -634 0
-361 362 634 0
361 -362 634 0
-361 -362 -634 0
363 364 -635 0
-363 364 635 0
363 -364 635 0
-363 -364 -635 0
365 366 -636 0
-365 366 636 0
365 -366 636 0
-365 -366 -636 0
367 368 -637 0
-367 368 637 0
367 -368 637 0
-367 -368 -637 0
369 370 -638 0
-369 370 638 0
369 -370 638 0
-369 -370 -638 0
371 372 -639 0
-371 372 639 0
371 -372 639 0
-371 -372 -639 0
373 374 -640 0
-373 374 640 0
373 -374 640 0
-373 -374 -640 0
375 376 -641 0
-375 376 641 0
375 -376 641 0
-375 -376 -641 0
377 378 -642 0
-377 378 642 0
377 -378 642 0
-377 -378 -642 0
379 380 -643 0
-379 380 643 0
379 -380 643 0
-379 -380 -643 0
381 382 -644 0
-381 382 644 0
381 -382 644 0
-381 -382 -644 0
383 384 -645 0
-383 384 645 0
383 -384 645 0
-383 -384 -645 0
385 386 -646 0
-385 386 646 0
385 -386 646 0
-385 -386 -646 0
387 388 -647 0
-387 388 647 0
387 -388 647 0
-387 -388 -647 0
389 390 -648 0
-389 390 648 0
389 -390 648 0
-389 -390 -648 0
391 392 -649 0
-391 392 649 0
391 -392 649 0
-391 -392 -649 0
393 394 -650 0
-393 394 650 0
393 -394 650 0
-393 -394 -650 0
395 396 -651 0
-395 396 651 0
395 -396 651 0
-395 -396 -651 0
397 398 -652 0
-397 398 652 0
397 -398 652 0
-397 -398 -652 0
399 400 -653 0
-399 400 653 0
399 -400 653 0
-399 -400 -653 0
401 402 -654 0
-401 402 654 0
401 -402 654 0
-401 -402 -654 0
403 404 -655 0
-403 404 655 0
403 -404 655 0
-403 -404 -655 0
405 406 -656 0
-405 406 656 0
405 -406 656 0
-405 -406 -656 0
407 408 -657 0
-407 408 657 0
407 -408 657 0
-407 -408 -657 0
409 410 -658 0
-409 410 658 0
409 -410 658 0
-409 -410 -658 0
411 412 -659 0
-411 412 659 0
411 -412 659 0
-411 -412 -659 0
413 414 -660 0
-413 414 660 0
413 -414 660 0
-413 -414 -660 0
415 416 -661 0
-415 416 661 0
415 -416 661 0
-415 -416 -661 0
417 418 -662 0
-417 418 662 0
417 -418 662 0
-417 -418 -662 0
419 420 -663 0
-419 420 663 0
419 -420 663 0
-419 -420 -663 0
421 422 -664 0
-421 422 664 0
421 -422 664 0
-421 -422 -664 0
423 424 -665 0
-423 424 665 0
423 -424 665 0
-423 -424 -665 0
425 426 -666 0
-425 426 666 0
425 -426 666 0
-425 -426 -666 0
427 428 -667 0
-427 428 667 0
427 -428 667 0
-427 -428 -667 0
429 430 -668 0
-429 430 668 0
429 -430 668 0
-429 -430 -668 0
431 432 -669 0
-431 432 669 0
431 -432 669 0
-431 -432 -669 0
433 434 -670 0
-433 434 670 0
433 -434 670 0
-433 -434 -670 0
435 436 -671 0
-435 436 671 0
435 -436 671 0
-435 -436 -671 0
437 438 -672 0
-437 438 672 0
437 -438 672 0
-437 -438 -672 0
439 440 -673 0
-439 440 673 0
439 -440 673 0
-439 -440 -673 0
441 442 -674 0
-441 442 674 0
441 -442 674 0
-441 -442 -674 0
443 444 -675 0
-443 444 675 0
443 -444 675 0
-443 -444 -675 0
445 446 -676 0
-445 446 676 0
445 -446 676 0
-445 -446 -676 0
447 448 -677 0
-447 448 677 0
447 -448 677 0
-447 -448 -677 0
449 450 -678 0
-449 450 678 0
449 -450 678 0
-449 -450 -678 0
454 455 -679 0
-454 455 679 0
454 -455 679 0
-454 -455 -679 0
456 457 -680 0
-456 457 680 0
456 -457 680 0
-456 -457 -680 0
458 459 -681 0
-458 459 681 0
458 -459 681 0
-458 -459 -681 0
460 461 -682 0
-460 461 682 0
460 -461 682 0
-460 -461 -682 0
462 463 -683 0
-462 463 683 0
462 -463 683 0
-462 -463 -683 0
464 465 -684 0
-464 465 684 0
464 -465 684 0
-464 -465 -684 0
466 467 -685 0
-466 467 685 0
466 -467 685 0
-466 -467 -685 0
468 469 -686 0
-468 469 686 0
468 -469 686 0
-468 -469 -686 0
470 471 -687 0
-470 471 687 0
470 -471 687 0
-470 -471 -687 0
472 473 -688 0
-472 473 688 0
472 -473 688 0
-472 -473 -688 0
474 475 -689 0
-474 475 689 0
474 -475 689 0
-474 -475 -689 0
476 477 -690 0
-476 477 690 0
476 -477 690 0
-476 -477 -690 0
478 479 -691 0
-478 479 691 0
478 -479 691 0
-478 -479 -691 0
480 481 -692 0
-480 481 692 0
480 -481 692 0
-480 -481 -692 0
482 483 -693 0
-482 483 693 0
482 -483 693 0
-482 -483 -693 0
484 485 -694 0
-484 485 694 0
484 -485 694 0
-484 -485 -694 0
486 487 -695 0
-486 487 695 0
486 -487 695 0
-486 -487 -695 0
488 489 -696 0
-488 489 696 0
488 -489 696 0
-488 -489 -696 0
490 491 -697 0
-490 491 697 0
490 -491 697 0
-490 -491 -697 0
492 493 -698 0
-492 493 698 0
492 -493 698 0
-492 -493 -698 0
494 495 -699 0
-494 495 699 0
494 -495 699 0
-494 -495 -699 0
496 497 -700 0
-496 497 700 0
496 -497 700 0
-496 -497 -700 0
498 499 -701 0
-498 499 701 0
498 -499 701 0
-498 -499 -701 0
500 501 -702 0
-500 501 702 0
500 -501 702 0
-500 -501 -702 0
502 503 -703 0
-502 503 703 0
502 -503 703 0
-502 -503 -703 0
504 505 -704 0
-504 505 704 0
504 -505 704 0
-504 -505 -704 0
506 507 -705 0
-506 507 705 0
506 -507 705 0
-506 -507 -705 0
508 509 -706 0
-508 509 706 0
508 -509 706 0
-508 -509 -706 0
510 511 -707 0
-510 511 707 0
510 -511 707 0
-510 -511 -707 0
512 513 -708 0
-512 513 708 0
512 -513 708 0
-512 -513 -708 0
514 515 -709 0
-514 515 709 0
514 -515 709 0
-514 -515 -709 0
516 517 -710 0
-516 517 710 0
516 -517 710 0
-516 -517 -710 0
518 519 -711 0
-518 519 711 0
518 -519 711 0
-518 -519 -711 0
520 521 -712 0
-520 521 712 0
520 -521 712 0
-520 -521 -712 0
522 523 -713 0
-522 523 713 0
522 -523 713 0
-522 -523 -713 0
524 525 -714 0
-524 525 714 0
524 -525 714 0
-524 -525 -714 0
526 527 -715 0
-526 527 715 0
526 -527 715 0
-526 -527 -715 0
528 529 -716 0
-528 529 716 0
528 -529 716 0
-528 -529 -716 0
530 531 -717 0
-530 531 717 0
530 -531 717 0
-530 -531 -717 0
532 533 -718 0
-532 533 718 0
532 -533 718 0
-532 -533 -718 0
534 535 -719 0
-534 535 719 0
534 -535 719 0
-534 -535 -719 0
536 537 -720 0
-536 537 720 0
536 -537 720 0
-536 -537 -720 0
538 539 -721 0
-538 539 721 0
538 -539 721 0
-538 -539 -721 0
540 541 -722 0
-540 541 722 0
540 -541 722 0
-540 -541 -722 0
542 543 -723 0
-542 543 723 0
542 -543 723 0
-542 -543 -723 0
544 545 -724 0
-544 545 724 0
544 -545 724 0
-544 -545 -724 0
546 547 -725 0
-546 547 725 0
546 -547 725 0
-546 -547 -725 0
548 549 -726 0
-548 549 726 0
548 -549 726 0
-548 -549 -726 0
550 551 -727 0
-550 551 727 0
550 -551 727 0
-550 -551 -727 0
552 553 -728 0
-552 553 728 0
552 -553 728 0
-552 -553 -728 0
554 555 -729 0
-554 555 729 0
554 -555 729 0
-554 -555 -729 0
556 557 -730 0
-556 557 730 0
556 -557 730 0
-556 -557 -730 0
558 559 -731 0
-558 559 731 0
558 -559 731 0
-558 -559 -731 0
560 561 -732 0
-560 561 732 0
560 -561 732 0
-560 -561 -732 0
562 563 -733 0
-562 563 733 0
562 -563 733 0
-562 -563 -733 0
564 565 -734 0
-564 565 734 0
564 -565 734 0
-564 -565 -734 0
566 567 -735 0
-566 567 735 0
566 -567 735 0
-566 -567 -735 0
568 569 -736 0
-568 569 736 0
568 -569 736 0
-568 -569 -736 0
570 571 -737 0
-570 571 737 0
570 -571 737 0
-570 -571 -737 0
572 573 -738 0
-572 573 738 0
572 -573 738 0
-572 -573 -738 0
574 575 -739 0
-574 575 739 0
574 -575 739 0
-574 -575 -739 0
576 577 -740 0
-576 577 740 0
576 -577 740 0
-576 -577 -740 0
578 579 -741 0
-578 579 741 0
578 -579 741 0
-578 -579 -741 0
580 581 -742 0
-580 581 742 0
580 -581 742 0
-580 -581 -742 0
582 583 -743 0
-582 583 743 0
582 -583 743 0
-582 -583 -743 0
584 585 -744 0
-584 585 744 0
584 -585 744 0
-584 -585 -744 0
586 587 -745 0
-586 587 745 0
586 -587 745 0
-586 -587 -745 0
588 589 -746 0
-588 589 746 0
588 -589 746 0
-588 -589 -746 0
590 591 -747 0
-590 591 747 0
590 -591 747 0
-590 -591 -747 0
592 593 -748 0
-592 593 748 0
592 -593 748 0
-592 -593 -748 0
594 595 -749 0
-594 595 749 0
594 -595 749 0
-594 -595 -749 0
596 597 -750 0
-596 597 750 0
596 -597 750 0
-596 -597 -750 0
598 599 -751 0
-598 599 751 0
598 -599 751 0
-598 -599 -751 0
600 601 -752 0
-600 601 752 0
600 -601 752 0
-600 -601 -752 0
602 603 -753 0
-602 603 753 0
602 -603 753 0
-602 -603 -753 0
604 605 -754 0
-604 605 754 0
604 -605 754 0
-604 -605 -754 0
606 607 -755 0
-606 607 755 0
606 -607 755 0
-606 -607 -755 0
608 609 -756 0
-608 609 756 0
608 -609 756 0
-608 -609 -756 0
610 611 -757 0
-610 611 757 0
610 -611 757 0
-610 -611 -757 0
612 613 -758 0
-612 613 758 0
612 -613 758 0
-612 -613 -758 0
614 615 -759 0
-614 615 759 0
614 -615 759 0
-614 -615 -759 0
616 617 -760 0
-616 617 760 0
616 -617 760 0
-616 -617 -760 0
618 619 -761 0
-618 619 761 0
618 -619 761 0
-618 -619 -761 0
620 621 -762 0
-620 621 762 0
620 -621 762 0
-620 -621 -762 0
622 623 -763 0
-622 623 763 0
622 -623 763 0
-622 -623 -763 0
624 625 -764 0
-624 625 764 0
624 -625 764 0
-624 -625 -764 0
626 627 -765 0
-626 627 765 0
626 -627 765 0
-626 -627 -765 0
628 629 -766 0
-628 629 766 0
628 -629 766 0
-628 -629 -766 0
630 631 -767 0
-630 631 767 0
630 -631 767 0
-630 -631 -767 0
632 633 -768 0
-632 633 768 0
632 -633 768 0
-632 -633 -768 0
634 635 -769 0
-634 635 769 0
634 -635 769 0
-634 -635 -769 0
636 637 -770 0
-636 637 770 0
636 -637 770 0
-636 -637 -770 0
638 639 -771 0
-638 639 771 0
638 -639 771 0
-638 -639 -771 0
640 641 -772 0
-640 641 772 0
640 -641 772 0
-640 -641 -772 0
642 643 -773 0
-642 643 773 0
642 -643 773 0
-642 -643 -773 0
644 645 -774 0
-644 645 774 0
644 -645 774 0
-644 -645 -774 0
646 647 -775 0
-646 647 775 0
646 -647 775 0
-646 -647 -775 0
648 649 -776 0
-648 649 776 0
648 -649 776 0
-648 -649 -776 0
650 651 -777 0
-650 651 777 0
650 -651 777 0
-650 -651 -777 0
652 653 -778 0
-652 653 778 0
652 -653 778 0
-652 -653 -778 0
654 655 -779 0
-654 655 779 0
654 -655 779 0
-654 -655 -779 0
656 657 -780 0
-656 657 780 0
656 -657 780 0
-656 -657 -780 0
658 659 -781 0
-658 659 781 0
658 -659 781 0
-658 -659 -781 0
660 661 -782 0
-660 661 782 0
660 -661 782 0
-660 -661 -782 0
662 663 -783 0
-662 663 783 0
662 -663 783 0
-662 -663 -783 0
664 665 -784 0
-664 665 784 0
664 -665 784 0
-664 -665 -784 0
666 667 -785 0
-666 667 785 0
666 -667 785 0
-666 -667 -785 0
668 669 -786 0
-668 669 786 0
668 -669 786 0
-668 -669 -786 0
670 671 -787 0
-670 671 787 0
670 -671 787 0
-670 -671 -787 0
672 673 -788 0
-672 673 788 0
672 -673 788 0
-672 -673 -788 0
674 675 -789 0
-674 675 789 0
674 -675 789 0
-674 -675 -789 0
676 677 -790 0
-676 677 790 0
676 -677 790 0
-676 -677 -790 0
679 680 -791 0
-679 680 791 0
679 -680 791 0
-679 -680 -791 0
681 682 -792 0
-681 682 792 0
681 -682 792 0
-681 -682 -792 0
683 684 -793 0
-683 684 793 0
683 -684 793 0
-683 -684 -793 0
685 686 -794 0
-685 686 794 0
685 -686 794 0
-685 -686 -794 0
687 688 -795 0
-687 688 795 0
687 -688 795 0
-687 -688 -795 0
689 690 -796 0
-689 690 796 0
689 -690 796 0
-689 -690 -796 0
691 692 -797 0
-691 692 797 0
691 -692 797 0
-691 -692 -797 0
693 694 -798 0
-693 694 798 0
693 -694 798 0
-693 -694 -798 0
695 696 -799 0
-695 696 799 0
695 -696 799 0
-695 -696 -799 0
697 698 -800 0
-697 698 800 0
697 -698 800 0
-697 -698 -800 0
699 700 -801 0
-699 700 801 0
699 -700 801 0
-699 -700 -801 0
701 702 -802 0
-701 702 802 0
701 -702 802 0
-701 -702 -802 0
703 704 -803 0
-703 704 803 0
703 -704 803 0
-703 -704 -803 0
705 706 -804 0
-705 706 804 0
705 -706 804 0
-705 -706 -804 0
707 708 -805 0
-707 708 805 0
707 -708 805 0
-707 -708 -805 0
709 710 -806 0
-709 710 806 0
709 -710 806 0
-709 -710 -806 0
711 712 -807 0
-711 712 807 0
711 -712 807 0
-711 -712 -807 0
713 714 -808 0
-713 714 808 0
713 -714 808 0
-713 -714 -808 0
715 716 -809 0
-715 716 809 0
715 -716 809 0
-715 -716 -809 0
717 718 -810 0
-717 718 810 0
717 -718 810 0
-717 -718 -810 0
719 720 -811 0
-719 720 811 0
719 -720 811 0
-719 -720 -811 0
721 722 -812 0
-721 722 812 0
721 -722 812 0
-721 -722 -812 0
723 724 -813 0
-723 724 813 0
723 -724 813 0
-723 -724 -813 0
725 726 -814 0
-725 726 814 0
725 -726 814 0
-725 -726 -814 0
727 728 -815 0
-727 728 815 0
727 -728 815 0
-727 -728 -815 0
729 730 -816 0
-729 730 816 0
729 -730 816 0
-729 -730 -816 0
731 732 -817 0
-731 732 817 0
731 -732 817 0
-731 -732 -817 0
733 734 -818 0
-733 734 818 0
733 -734 818 0
-733 -734 -818 0
735 736 -819 0
-735 736 819 0
735 -736 819 0
-735 -736 -819 0
737 738 -820 0
-737 738 820 0
737 -738 820 0
-737 -738 -820 0
739 740 -821 0
-739 740 821 0
739 -740 821 0
-739 -740 -821 0
741 742 -822 0
-741 742 822 0
741 -742 822 0
-741 -742 -822 0
743 744 -823 0
-743 744 823 0
743 -744 823 0
-743 -744 -823 0
745 746 -824 0
-745 746 824 0
745 -746 824 0
-745 -746 -824 0
747 748 -825 0
-747 748 825 0
747 -748 825 0
-747 -748 -825 0
749 750 -826 0
-749 750 826 0
749 -750 826 0
-749 -750 -826 0
751 752 -827 0
-751 752 827 0
751 -752 827 0
-751 -752 -827 0
753 754 -828 0
-753 754 828 0
753 -754 828 0
-753 -754 -828 0
755 756 -829 0
-755 756 829 0
755 -756 829 0
-755 -756 -829 0
757 758 -830 0
-757 758 830 0
757 -758 830 0
-757 -758 -830 0
759 760 -831 0
-759 760 831 0
759 -760 831 0
-759 -760 -831 0
761 762 -832 0
-761 762 832 0
761 -762 832 0
-761 -762 -832 0
763 764 -833 0
-763 764 833 0
763 -764 833 0
-763 -764 -833 0
765 766 -834 0
-765 766 834 0
765 -766 834 0
-765 -766 -834 0
767 768 -835 0
-767 768 835 0
767 -768 835 0
-767 -768 -835 0
769 770 -836 0
-769 770 836 0
769 -770 836 0
-769 -770 -836 0
771 772 -837 0
-771 772 837 0
771 -772 837 0
-771 -772 -837 0
773 774 -838 0
-773 774 838 0
773 -774 838 0
-773 -774 -838 0
775 776 -839 0
-775 776 839 0
775 -776 839 0
-775 -776 -839 0
777 778 -840 0
-777 778 840 0
777 -778 840 0
-777 -778 -840 0
779 780 -841 0
-779 780 841 0
779 -780 841 0
-779 -780 -841 0
781 782 -842 0
-781 782 842 0
781 -782 842 0
-781 -782 -842 0
783 784 -843 0
-783 784 843 0
783 -784 843 0
-783 -784 -843 0
785 786 -844 0
-785 786 844 0
785 -786 844 0
-785 -786 -844 0
787 788 -845 0
-787 788 845 0
787 -788 845 0
-787 -788 -845 0
789 790 -846 0
-789 790 846 0
789 -790 846 0
-789 -790 -846 0
791 792 -847 0
-791 792 847 0
791 -792 847 0
-791 -792 -847 0
793 794 -848 0
-793 794 848 0
793 -794 848 0
-793 -794 -848 0
795 796 -849 0
-795 796 849 0
795 -796 849 0
-795 -796 -849 0
797 798 -850 0
-797 798 850 0
797 -798 850 0
-797 -798 -850 0
799 800 -851 0
-799 800 851 0
799 -800 851 0
-799 -800 -851 0
801 802 -852 0
-801 802 852 0
801 -802 852 0
-801 -802 -852 0
803 804 -853 0
-803 804 853 0
803 -804 853 0
-803 -804 -853 0
805 806 -854 0
-805 806 854 0
805 -806 854 0
-805 -806 -854 0
807 808 -855 0
-807 808 855 0
807 -808 855 0
-807 -808 -855 0
809 810 -856 0
-809 810 856 0
809 -810 856 0
-809 -810 -856 0
811 812 -857 0
-811 812 857 0
811 -812 857 0
-811 -812 -857 0
813 814 -858 0
-813 814 858 0
813 -814 858 0
-813 -814 -858 0
815 816 -859 0
-815 816 859 0
815 -816 859 0
-815 -816 -859 0
817 818 -860 0
-817 818 860 0
817 -818 860 0
-817 -818 -860 0
819 820 -861 0
-819 820 861 0
819 -820 861 0
-819 -820 -861 0
821 822 -862 0
-821 822 862 0
821 -822 862 0
-821 -822 -862 0
823 824 -863 0
-823 824 863 0
823 -824 863 0
-823 -824 -863 0
825 826 -864 0
-825 826 864 0
825 -826 864 0
-825 -826 -864 0
827 828 -865 0
-827 828 865 0
827 -828 865 0
-827 -828 -865 0
829 830 -866 0
-829 830 866 0
829 -830 866 0
-829 -830 -866 0
831 832 -867 0
-831 832 867 0
831 -832 867 0
-831 -832 -867 0
833 834 -868 0
-833 834 868 0
833 -834 868 0
-833 -834 -868 0
835 836 -869 0
-835 836 869 0
835 -836 869 0
-835 -836 -869 0
837 838 -870 0
-837 838 870 0
837 -838 870 0
-837 -838 -870 0
839 840 -871 0
-839 840 871 0
839 -840 871 0
-839 -840 -871 0
841 842 -872 0
-841 842 872 0
841 -842 872 0
-841 -842 -872 0
843 844 -873 0
-843 844 873 0
843 -844 873 0
-843 -844 -873 0
845 846 -874 0
-845 846 874 0
845 -846 874 0
-845 -846 -874 0
847 848 -875 0
-847 848 875 0
847 -848 875 0
-847 -848 -875 0
849 850 -876 0
-849 850 876 0
849 -850 876 0
-849 -850 -876 0
851 852 -877 0
-851 852 877 0
851 -852 877 0
-851 -852 -877 0
853 854 -878 0
-853 854 878 0
853 -854 878 0
-853 -854 -878 0
855 856 -879 0
-855 856 879 0
855 -856 879 0
-855 -856 -879 0
857 858 -880 0
-857 858 880 0
857 -858 880 0
-857 -858 -880 0
859 860 -881 0
-859 860 881 0
859 -860 881 0
-859 -860 -881 0
861 862 -882 0
-861 862 882 0
861 -862 882 0
-861 -862 -882 0
863 864 -883 0
-863 864 883 0
863 -864 883 0
-863 -864 -883 0
865 866 -884 0
-865 866 884 0
865 -866 884 0
-865 -866 -884 0
867 868 -885 0
-867 868 885 0
867 -868 885 0
-867 -868 -885 0
869 870 -886 0
-869 870 886 0
869 -870 886 0
-869 -870 -886 0
871 872 -887 0
-871 872 887 0
871 -872 887 0
-871 -872 -887 0
873 874 -888 0
-873 874 888 0
873 -874 888 0
-873 -874 -888 0
875 876 -889 0
-875 876 889 0
875 -876 889 0
-875 -876 -889 0
877 878 -890 0
-877 878 890 0
877 -878 890 0
-877 -878 -890 0
879 880 -891 0
-879 880 891 0
879 -880 891 0
-879 -880 -891 0
881 882 -892 0
-881 882 892 0
881 -882 892 0
-881 -882 -892 0
883 884 -893 0
-883 884 893 0
883 -884 893 0
-883 -884 -893 0
885 886 -894 0
-885 886 894 0
885 -886 894 0
-885 -886 -894 0
887 888 -895 0
-887 888 895 0
887 -888 895 0
-887 -888 -895 0
889 890 -896 0
-889 890 896 0
889 -890 896 0
-889 -890 -896 0
891 892 -897 0
-891 892 897 0
891 -892 897 0
-891 -892 -897 0
893 894 -898 0
-893 894 898 0
893 -894 898 0
-893 -894 -898 0
895 678 -899 0
-895 678 899 0
895 -678 899 0
-895 -678 -899 0
896 897 -900 0
-896 897 900 0
896 -897 900 0
-896 -897 -900 0
898 899 -901 0
-898 899 901 0
898 -899 901 0
-898 -899 -901 0
900 901 -451 0
-900 901 451 0
900 -901 451 0
-900 -901 -451 0
